min: 711 x1 + 284 x2 + 345 x3 + 395 x4 + 88 x5 + 997 x6 + 395 x7 + 112 x8 + 89 x9 + 202 x10 + 975 x11 + 152 x12 + 502 x13 + 143 x14 + 296 x15 + 919 x16 + 100 x17 + 614 x18 + 861 x19 + 815 x20;

r1: x11 + x16 + x5 >= 1;
r2: x4 + x10 + x9 + x12 + x20 + x14 + x8 + x2 >= 1;
r3: x20 + x17 + x12 + x5 + x10 >= 1;
r4: x6 + x7 + x14 >= 1;
r5: x10 + x11 + x15 + x2 + x13 + x1 + x16 + x12 >= 1;
r6: x16 + x8 + x4 + x6 + x17 + x3 >= 1;
r7: x20 + x7 + x17 + x4 + x9 + x19 >= 1;
r8: x16 + x9 >= 1;
r9: x15 + x7 + x9 + x16 >= 1;
r10: x5 + x20 + x8 + x13 >= 1;
r11: x13 >= 1;
r12: x3 + x7 + x16 + x1 + x15 + x9 + x17 + x10 >= 1;
r13: x9 + x12 + x2 + x14 + x11 + x6 + x13 + x1 >= 1;
r14: x14 + x7 + x5 >= 1;
r15: x19 + x15 + x8 + x13 + x5 >= 1;
r16: x16 >= 1;
r17: x3 + x11 + x12 + x8 >= 1;
r18: x5 + x13 + x3 + x20 + x16 + x14 + x2 >= 1;
r19: x2 + x13 + x15 + x5 + x18 >= 1;
r20: x4 >= 1;
r21: x15 + x18 + x11 + x4 + x13 + x1 + x14 + x2 >= 1;
r22: x15 + x19 + x7 + x2 + x18 >= 1;
r23: x17 + x19 + x20 + x5 + x9 >= 1;
r24: x1 + x2 + x13 + x20 + x9 + x15 + x7 + x19 >= 1;
r25: x16 + x3 + x6 + x13 >= 1;
r26: x20 >= 1;
r27: x16 + x18 >= 1;
r28: x14 + x2 + x17 + x8 + x11 >= 1;
r29: x3 + x14 + x6 + x19 + x8 + x7 + x9 + x11 >= 1;
r30: x4 + x5 + x10 + x7 + x15 >= 1;
r31: x9 + x8 + x4 + x17 + x16 + x11 + x6 + x18 >= 1;
r32: x9 + x12 + x18 + x7 + x8 + x14 + x6 >= 1;
r33: x12 + x16 + x10 >= 1;
r34: x10 + x4 + x11 + x18 >= 1;
r35: x9 + x19 + x13 + x8 + x12 >= 1;
r36: x10 + x14 + x16 >= 1;
r37: x19 + x13 >= 1;
r38: x6 + x14 + x19 + x10 + x15 + x20 + x9 >= 1;
r39: x18 + x5 + x4 + x6 + x9 + x11 + x2 >= 1;
r40: x4 + x18 + x14 >= 1;
r41: x9 + x19 + x17 + x8 + x14 + x15 + x16 >= 1;
r42: x1 + x2 + x6 + x7 + x20 + x8 + x3 >= 1;
r43: x15 + x2 >= 1;
r44: x18 >= 1;
r45: x17 + x8 + x3 + x6 + x19 + x5 >= 1;
r46: x13 + x2 + x5 + x1 >= 1;
r47: x1 + x13 + x8 >= 1;
r48: x13 + x19 + x20 + x11 + x12 + x1 + x7 + x9 >= 1;
r49: x12 + x14 >= 1;
r50: x3 + x17 + x16 >= 1;
r51: x10 + x16 + x13 + x19 + x14 + x5 + x18 >= 1;
r52: x15 + x3 + x4 + x12 + x2 + x1 + x11 + x18 >= 1;
r53: x14 + x11 + x9 >= 1;
r54: x12 + x9 + x16 + x13 + x11 >= 1;
r55: x19 + x3 + x4 + x15 >= 1;
r56: x10 >= 1;
r57: x4 + x8 >= 1;
r58: x17 + x13 + x7 >= 1;
r59: x14 >= 1;
r60: x15 + x5 + x11 + x2 >= 1;

bin x1, x2, x3, x4, x5, x6, x7, x8, x9, x10, x11, x12, x13, x14, x15, x16, x17, x18, x19, x20;
